c FILE /home/rafael/Documents/HappySet/MIHS/inputs/happygen/output/graph_scale_free_k3_p0.4_v50_20241127_082416.txt
c SOURCE This is a scale-free graph formed for the happy graph colouring problem.
c DESCRIPTION It was generated using the problem generator of Rhyd Lewis
c
c GRAPH STATS
c Seed                             = 526101398
c Number of Nodes                  = 50
c Number of colours k              = 3
c Number of pre-assignments        = 20
c Number of links per new node     = 5
c Density                          = 0.191837
c 
c The degrees of nodes 1 to 50, respectively, are as follows 
c [29, 26, 21, 21, 19, 17, 16, 15, 15, 13, 13, 11, 11, 10, 10, 10, 10, 10, 9, 9, 8, 8, 7, 7, 7, 7, 
c  7, 7, 6, 6, 6, 6, 6, 6, 6, 5, 5, 5, 5, 5, 5, 5, 5, 5, 5, 5, 5, 5, 5, 5] 
c  
p edge 50 235 3
e 1 2
e 1 3
e 1 4
e 1 5
e 1 6
e 1 7
e 1 8
e 1 9
e 1 10
e 1 11
e 1 12
e 1 13
e 1 14
e 1 15
e 1 16
e 1 18
e 1 24
e 1 25
e 1 27
e 1 28
e 1 29
e 1 30
e 1 38
e 1 39
e 1 43
e 1 44
e 1 45
e 1 48
e 1 50
e 2 3
e 2 4
e 2 5
e 2 6
e 2 7
e 2 8
e 2 9
e 2 10
e 2 11
e 2 12
e 2 13
e 2 15
e 2 20
e 2 23
e 2 25
e 2 26
e 2 30
e 2 32
e 2 33
e 2 34
e 2 35
e 2 37
e 2 39
e 2 43
e 2 48
e 3 5
e 3 6
e 3 8
e 3 9
e 3 10
e 3 14
e 3 17
e 3 20
e 3 21
e 3 23
e 3 29
e 3 30
e 3 35
e 3 37
e 3 42
e 3 43
e 3 44
e 3 49
e 3 50
e 4 5
e 4 7
e 4 9
e 4 12
e 4 13
e 4 16
e 4 17
e 4 18
e 4 20
e 4 21
e 4 22
e 4 24
e 4 27
e 4 32
e 4 36
e 4 37
e 4 38
e 4 40
e 4 49
e 5 6
e 5 7
e 5 8
e 5 9
e 5 14
e 5 16
e 5 21
e 5 23
e 5 25
e 5 31
e 5 32
e 5 36
e 5 43
e 5 46
e 5 49
e 6 7
e 6 8
e 6 10
e 6 11
e 6 18
e 6 19
e 6 20
e 6 27
e 6 29
e 6 34
e 6 38
e 6 39
e 6 42
e 7 8
e 7 12
e 7 15
e 7 22
e 7 23
e 7 34
e 7 36
e 7 41
e 7 44
e 7 47
e 7 50
e 8 9
e 8 11
e 8 14
e 8 19
e 8 30
e 8 34
e 8 40
e 8 42
e 8 47
e 9 12
e 9 14
e 9 15
e 9 16
e 9 24
e 9 26
e 9 32
e 9 39
e 9 42
e 10 13
e 10 14
e 10 19
e 10 21
e 10 23
e 10 26
e 10 27
e 10 35
e 10 46
e 11 12
e 11 17
e 11 24
e 11 28
e 11 31
e 11 33
e 11 40
e 11 47
e 11 50
e 12 13
e 12 15
e 12 16
e 12 17
e 12 27
e 13 18
e 13 22
e 13 25
e 13 29
e 13 44
e 13 47
e 14 17
e 14 30
e 14 36
e 14 38
e 15 19
e 15 21
e 15 31
e 15 38
e 15 41
e 16 22
e 16 26
e 16 37
e 16 39
e 16 40
e 17 18
e 17 26
e 17 29
e 17 31
e 17 50
e 18 20
e 18 22
e 18 28
e 18 32
e 18 46
e 19 21
e 19 25
e 19 28
e 19 40
e 19 46
e 20 33
e 20 41
e 20 45
e 20 48
e 21 36
e 21 48
e 22 34
e 22 35
e 22 42
e 23 35
e 23 41
e 24 29
e 24 37
e 24 44
e 25 31
e 25 33
e 26 33
e 26 45
e 27 45
e 27 47
e 28 32
e 28 46
e 28 49
e 30 48
e 31 45
e 33 43
e 34 41
e 35 49
n 1 3
n 7 3
n 13 3
n 17 2
n 19 2
n 20 1
n 21 2
n 23 3
n 26 2
n 27 3
n 30 3
n 31 2
n 32 3
n 34 3
n 37 1
n 40 2
n 42 2
n 43 3
n 46 2
n 49 2
